102122
8,83,53,59,68,31,24,48,19,5,22,44,82,75,40,11,33,27,16,38,35,30,2,55,23,12,3,43,57,34,49,47,60,81,72,51,7,56,17,74,32,58,77,9,20,67,76,26,36,66,71,21,54,46,45,80,62,70,14,29,10,1,64,73,13,37,18,65,50,4,63,39,52,41,78,69,25,42,15,61,6,79,28,8